Set parameter Username
Set parameter LogFile to value "gurobi.log"
Academic license - for non-commercial use only - expires 2024-05-02
Using license file /Users/sissi/gurobi.lic

Gurobi Optimizer version 10.0.1 build v10.0.1rc0 (mac64[arm])
Copyright (c) 2023, Gurobi Optimization, LLC

Read OPB format model from file pbo/p_pbo_0_2960.opb
Reading time = 0.00 seconds
(null): 2005 rows, 1057 columns, 5973 nonzeros

CPU model: Apple M2
Thread count: 8 physical cores, 8 logical processors, using up to 8 threads

Optimize a model with 2005 rows, 1057 columns and 5973 nonzeros
Model fingerprint: 0x0549634a
Variable types: 0 continuous, 1057 integer (1057 binary)
Coefficient statistics:
  Matrix range     [1e+00, 1e+00]
  Objective range  [1e+00, 4e+00]
  Bounds range     [1e+00, 1e+00]
  RHS range        [1e+00, 1e+00]
Found heuristic solution: objective -360.0000000
Presolve removed 1001 rows and 511 columns
Presolve time: 0.00s
Presolved: 1004 rows, 546 columns, 3012 nonzeros
Variable types: 0 continuous, 546 integer (546 binary)

Root relaxation: objective -6.150000e+02, 114 iterations, 0.00 seconds (0.00 work units)

    Nodes    |    Current Node    |     Objective Bounds      |     Work
 Expl Unexpl |  Obj  Depth IntInf | Incumbent    BestBd   Gap | It/Node Time

     0     0 -615.00000    0   44 -360.00000 -615.00000  70.8%     -    0s
     0     0 -431.44228    0  538 -360.00000 -431.44228  19.8%     -    1s
H    0     0                    -369.0000000 -407.06421  10.3%     -    1s
     0     0 -407.06421    0  536 -369.00000 -407.06421  10.3%     -    1s
     0     0 -405.07869    0  541 -369.00000 -405.07869  9.78%     -    1s
     0     0 -404.44991    0  541 -369.00000 -404.44991  9.61%     -    1s
     0     0 -404.19312    0  542 -369.00000 -404.19312  9.54%     -    1s
     0     0 -404.11648    0  541 -369.00000 -404.11648  9.52%     -    1s
H    0     0                    -372.0000000 -398.14492  7.03%     -    2s
     0     0 -398.14492    0  543 -372.00000 -398.14492  7.03%     -    2s
H    0     0                    -395.0000000 -397.21716  0.56%     -    2s
     0     0 -397.21716    0  544 -395.00000 -397.21716  0.56%     -    2s
     0     0 -396.91644    0  544 -395.00000 -396.91644  0.49%     -    2s
     0     0 -396.81248    0  543 -395.00000 -396.81248  0.46%     -    2s
     0     0     cutoff    0      -395.00000 -395.00000  0.00%     -    2s

Cutting planes:
  MIR: 125
  StrongCG: 2
  RLT: 219

Explored 1 nodes (6903 simplex iterations) in 3.01 seconds (1.24 work units)
Thread count was 8 (of 8 available processors)

Solution count 4: -395 -372 -369 -360 
No other solutions better than -395

Optimal solution found (tolerance 1.00e-04)
Best objective -3.950000000000e+02, best bound -3.950000000000e+02, gap 0.0000%

Wrote result file 'solution/p_0_2960.sol'

